ncities = 20;
nitems  = 380;
bb_distance_n = 5;

knapsack_capacity = 1000;
min_speed = 1000;
max_speed = 2000;
renting_ratio = 46;

distances = 
 [|   0,  624,  262,  408,  776,  508, 1071,  394,  727, 1041,  876,  702,  209,  494,  792,  332,  765,  995,  659,  401
  | 624,    0,  763,  358,  399,  384,  522,  262,  240,  470,  484,  443,  415,  422,  220,  812,  353,  420,   78,  244
  | 262,  763,    0,  443,  782,  747, 1259,  590,  920, 1219,  870,  939,  394,  739,  880,   71,  788, 1170,  774,  519
  | 408,  358,  443,    0,  369,  538,  879,  324,  570,  828,  468,  690,  262,  555,  439,  479,  361,  778,  347,  150
  | 776,  399,  782,  369,    0,  758,  820,  573,  628,  753,  103,  842,  608,  790,  263,  801,   50,  709,  326,  419
  | 508,  384,  747,  538,  758,    0,  614,  214,  300,  604,  853,  194,  364,   41,  602,  814,  718,  567,  461,  393
  |1071,  522, 1259,  879,  820,  614,    0,  678,  344,   71,  861,  472,  875,  648,  557, 1315,  771,  112,  550,  753
  | 394,  262,  590,  324,  573,  214,  678,    0,  334,  647,  673,  377,  198,  234,  471,  652,  539,  600,  323,  180
  | 727,  240,  920,  570,  628,  300,  344,  334,    0,  318,  702,  248,  532,  340,  398,  978,  580,  275,  304,  429
  |1041,  470, 1219,  828,  753,  604,   71,  647,  318,    0,  792,  481,  841,  641,  490, 1273,  704,   50,  492,  707
  | 876,  484,  870,  468,  103,  853,  861,  673,  702,  792,    0,  926,  711,  886,  314,  884,  135,  750,  407,  522
  | 702,  443,  939,  690,  842,  194,  472,  377,  248,  481,  926,    0,  552,  212,  636, 1006,  796,  455,  519,  540
  | 209,  415,  394,  262,  608,  364,  875,  198,  532,  841,  711,  552,    0,  365,  590,  458,  589,  793,  453,  202
  | 494,  422,  739,  555,  790,   41,  648,  234,  340,  641,  886,  212,  365,    0,  641,  808,  752,  605,  498,  414
  | 792,  220,  880,  439,  263,  602,  557,  471,  398,  490,  314,  636,  590,  641,    0,  917,  214,  446,  149,  391
  | 332,  812,   71,  479,  801,  814, 1315,  652,  978, 1273,  884, 1006,  458,  808,  917,    0,  810, 1224,  818,  569
  | 765,  353,  788,  361,   50,  718,  771,  539,  580,  704,  135,  796,  589,  752,  214,  810,    0,  659,  279,  394
  | 995,  420, 1170,  778,  709,  567,  112,  600,  275,   50,  750,  455,  793,  605,  446, 1224,  659,    0,  443,  658
  | 659,   78,  774,  347,  326,  461,  550,  323,  304,  492,  407,  519,  453,  498,  149,  818,  279,  443,    0,  262
  | 401,  244,  519,  150,  419,  393,  753,  180,  429,  707,  522,  540,  202,  414,  391,  569,  394,  658,  262,    0
  |];

items = [
  1:
    (profit: 3709, weight: 6735, city:  2),
    (profit: 7030, weight: 9768, city:  2),
    (profit: 6795, weight: 8012, city:  2),
    (profit:  975, weight: 6297, city:  2),
    (profit: 9904, weight: 8183, city:  2),
    (profit: 4975, weight: 2483, city:  2),
    (profit: 9556, weight: 6877, city:  2),
    (profit:  356, weight: 2400, city:  2),
    (profit:  275, weight: 5063, city:  2),
    (profit: 4701, weight: 2820, city:  2),
    (profit:  634, weight: 9166, city:  2),
    (profit: 3683, weight: 4681, city:  2),
    (profit: 4640, weight: 1086, city:  2),
    (profit: 6354, weight: 8019, city:  2),
    (profit: 3681, weight: 3079, city:  2),
    (profit: 8296, weight: 7577, city:  2),
    (profit: 6269, weight: 1718, city:  2),
    (profit:  588, weight: 9405, city:  2),
    (profit: 3607, weight: 6401, city:  2),
    (profit: 9680, weight: 9758, city:  2),
    (profit: 1946, weight: 3992, city:  3),
    (profit: 2565, weight: 6550, city:  3),
    (profit: 5055, weight: 4304, city:  3),
    (profit: 7918, weight: 5584, city:  3),
    (profit: 6871, weight: 9400, city:  3),
    (profit: 1548, weight: 6856, city:  3),
    (profit: 7091, weight: 4465, city:  3),
    (profit: 5602, weight: 7905, city:  3),
    (profit: 4024, weight: 1164, city:  3),
    (profit: 7189, weight: 7128, city:  3),
    (profit: 6123, weight: 5710, city:  3),
    (profit:  687, weight: 4916, city:  3),
    (profit: 7097, weight: 3741, city:  3),
    (profit: 4385, weight: 4400, city:  3),
    (profit: 1856, weight:  633, city:  3),
    (profit: 3361, weight: 3813, city:  3),
    (profit: 5328, weight: 5234, city:  3),
    (profit: 8490, weight: 2928, city:  3),
    (profit: 8009, weight: 1416, city:  3),
    (profit:  632, weight: 1296, city:  3),
    (profit: 1989, weight: 6149, city:  4),
    (profit: 8529, weight: 4814, city:  4),
    (profit: 9046, weight:  233, city:  4),
    (profit: 7528, weight: 9883, city:  4),
    (profit:  249, weight: 8404, city:  4),
    (profit: 6232, weight: 1107, city:  4),
    (profit: 1938, weight: 6152, city:  4),
    (profit: 3374, weight: 8465, city:  4),
    (profit: 3445, weight: 1858, city:  4),
    (profit: 6764, weight: 2470, city:  4),
    (profit: 6364, weight: 3032, city:  4),
    (profit: 9154, weight: 5968, city:  4),
    (profit: 1610, weight: 3297, city:  4),
    (profit: 2518, weight: 1998, city:  4),
    (profit: 2099, weight: 4659, city:  4),
    (profit: 3274, weight: 1409, city:  4),
    (profit: 8196, weight: 5516, city:  4),
    (profit: 9350, weight: 1628, city:  4),
    (profit: 8966, weight: 1016, city:  4),
    (profit: 6214, weight:  285, city:  4),
    (profit:  683, weight: 7889, city:  5),
    (profit: 4095, weight: 4665, city:  5),
    (profit: 2928, weight: 1001, city:  5),
    (profit: 2841, weight: 2302, city:  5),
    (profit: 7788, weight: 1761, city:  5),
    (profit: 2780, weight: 8278, city:  5),
    (profit: 5888, weight: 3834, city:  5),
    (profit: 3591, weight: 8416, city:  5),
    (profit: 1114, weight: 8127, city:  5),
    (profit: 1014, weight: 2026, city:  5),
    (profit: 6662, weight: 3308, city:  5),
    (profit: 8555, weight: 8110, city:  5),
    (profit: 4359, weight: 2937, city:  5),
    (profit: 7940, weight: 8217, city:  5),
    (profit: 1542, weight: 3793, city:  5),
    (profit: 3503, weight:  671, city:  5),
    (profit: 5682, weight: 5850, city:  5),
    (profit: 2805, weight: 8038, city:  5),
    (profit: 6017, weight: 1681, city:  5),
    (profit: 5766, weight: 7268, city:  5),
    (profit: 3556, weight: 2850, city:  6),
    (profit: 6133, weight: 6663, city:  6),
    (profit: 2029, weight: 4633, city:  6),
    (profit: 8424, weight: 2981, city:  6),
    (profit: 4228, weight: 4872, city:  6),
    (profit: 4974, weight:  140, city:  6),
    (profit: 3327, weight: 6912, city:  6),
    (profit: 2392, weight: 4063, city:  6),
    (profit: 5540, weight: 4662, city:  6),
    (profit: 7660, weight: 8439, city:  6),
    (profit: 1370, weight: 3930, city:  6),
    (profit: 1864, weight: 8969, city:  6),
    (profit: 4598, weight: 9864, city:  6),
    (profit: 7095, weight: 3556, city:  6),
    (profit: 7057, weight: 5915, city:  6),
    (profit: 4523, weight: 3422, city:  6),
    (profit: 8984, weight: 3403, city:  6),
    (profit: 5445, weight: 2885, city:  6),
    (profit: 3592, weight: 2488, city:  6),
    (profit:  529, weight: 7632, city:  6),
    (profit: 7984, weight: 1075, city:  7),
    (profit: 1744, weight: 8461, city:  7),
    (profit: 2190, weight: 5001, city:  7),
    (profit: 7150, weight: 9075, city:  7),
    (profit: 2889, weight: 9704, city:  7),
    (profit:  657, weight: 4613, city:  7),
    (profit: 8658, weight: 6972, city:  7),
    (profit: 6777, weight: 7066, city:  7),
    (profit: 1159, weight:  548, city:  7),
    (profit: 1277, weight: 2753, city:  7),
    (profit: 1480, weight: 9924, city:  7),
    (profit: 1414, weight: 8649, city:  7),
    (profit: 8363, weight: 4263, city:  7),
    (profit: 9915, weight: 5567, city:  7),
    (profit: 5131, weight: 5094, city:  7),
    (profit: 9493, weight:  318, city:  7),
    (profit: 8125, weight: 6261, city:  7),
    (profit: 1970, weight: 8343, city:  7),
    (profit: 2754, weight:  989, city:  7),
    (profit: 3624, weight: 1609, city:  7),
    (profit: 8441, weight: 2176, city:  8),
    (profit: 1270, weight: 4343, city:  8),
    (profit: 7302, weight: 9861, city:  8),
    (profit: 1111, weight:  792, city:  8),
    (profit: 3233, weight: 5736, city:  8),
    (profit: 2367, weight: 4939, city:  8),
    (profit: 8719, weight: 4709, city:  8),
    (profit: 6598, weight: 3878, city:  8),
    (profit: 2387, weight: 1628, city:  8),
    (profit: 6073, weight: 6055, city:  8),
    (profit: 4769, weight: 4067, city:  8),
    (profit: 9758, weight: 8801, city:  8),
    (profit: 9519, weight: 9611, city:  8),
    (profit: 5908, weight:  220, city:  8),
    (profit:  975, weight: 8059, city:  8),
    (profit:  623, weight: 9557, city:  8),
    (profit: 6037, weight: 2580, city:  8),
    (profit:  832, weight: 7262, city:  8),
    (profit: 8983, weight: 9804, city:  8),
    (profit: 2778, weight: 9447, city:  8),
    (profit: 4896, weight: 2998, city:  9),
    (profit: 6955, weight: 2208, city:  9),
    (profit: 4670, weight:  948, city:  9),
    (profit: 7072, weight: 7772, city:  9),
    (profit: 8804, weight: 1064, city:  9),
    (profit: 5051, weight:  737, city:  9),
    (profit: 1134, weight: 3689, city:  9),
    (profit: 4458, weight: 1296, city:  9),
    (profit: 8204, weight: 9256, city:  9),
    (profit: 5346, weight: 9960, city:  9),
    (profit: 9797, weight: 6921, city:  9),
    (profit: 9394, weight: 9916, city:  9),
    (profit: 2817, weight: 4751, city:  9),
    (profit: 8770, weight:  793, city:  9),
    (profit: 7859, weight: 3585, city:  9),
    (profit: 9308, weight: 4996, city:  9),
    (profit: 6212, weight:  746, city:  9),
    (profit: 3280, weight: 4853, city:  9),
    (profit: 1881, weight: 8616, city:  9),
    (profit: 6752, weight:  650, city:  9),
    (profit: 6117, weight: 3163, city: 10),
    (profit: 6515, weight: 2824, city: 10),
    (profit: 7661, weight: 2323, city: 10),
    (profit: 7902, weight: 4029, city: 10),
    (profit: 5159, weight: 4463, city: 10),
    (profit: 3509, weight: 6520, city: 10),
    (profit: 8703, weight: 7350, city: 10),
    (profit: 7562, weight: 6319, city: 10),
    (profit: 8562, weight: 9734, city: 10),
    (profit: 5549, weight: 1591, city: 10),
    (profit: 3127, weight: 6111, city: 10),
    (profit: 5628, weight: 5800, city: 10),
    (profit: 5301, weight:  272, city: 10),
    (profit: 2652, weight: 3886, city: 10),
    (profit: 6711, weight: 3795, city: 10),
    (profit: 1650, weight: 6302, city: 10),
    (profit: 6130, weight: 1722, city: 10),
    (profit: 4748, weight: 2877, city: 10),
    (profit: 1494, weight: 7879, city: 10),
    (profit: 1705, weight: 2399, city: 10),
    (profit: 9244, weight: 4878, city: 11),
    (profit: 7157, weight: 9164, city: 11),
    (profit: 5413, weight: 4064, city: 11),
    (profit: 5043, weight: 5943, city: 11),
    (profit: 2798, weight: 9875, city: 11),
    (profit: 8397, weight: 5616, city: 11),
    (profit: 5312, weight: 4531, city: 11),
    (profit: 7501, weight:  257, city: 11),
    (profit: 3290, weight: 6523, city: 11),
    (profit: 4168, weight: 6687, city: 11),
    (profit: 8987, weight: 6921, city: 11),
    (profit:  660, weight: 1201, city: 11),
    (profit: 1515, weight: 8317, city: 11),
    (profit:  175, weight: 9619, city: 11),
    (profit: 5939, weight: 1706, city: 11),
    (profit: 3643, weight:  361, city: 11),
    (profit: 2037, weight: 3875, city: 11),
    (profit: 9915, weight: 1383, city: 11),
    (profit: 7403, weight: 5919, city: 11),
    (profit:  343, weight: 7422, city: 11),
    (profit: 3048, weight:  261, city: 12),
    (profit: 3303, weight: 2859, city: 12),
    (profit:  471, weight: 9798, city: 12),
    (profit: 6944, weight: 6321, city: 12),
    (profit: 1763, weight: 1517, city: 12),
    (profit: 2797, weight: 3291, city: 12),
    (profit: 7028, weight: 2534, city: 12),
    (profit: 7996, weight: 3777, city: 12),
    (profit: 7260, weight: 9372, city: 12),
    (profit: 5896, weight: 1819, city: 12),
    (profit: 7362, weight: 9945, city: 12),
    (profit: 8313, weight: 6148, city: 12),
    (profit: 2395, weight:  393, city: 12),
    (profit: 6404, weight: 8308, city: 12),
    (profit:  612, weight: 3556, city: 12),
    (profit: 4970, weight: 1561, city: 12),
    (profit: 8538, weight: 1379, city: 12),
    (profit: 2271, weight: 6284, city: 12),
    (profit: 3588, weight: 4247, city: 12),
    (profit: 8007, weight: 8270, city: 12),
    (profit: 9174, weight: 6311, city: 13),
    (profit: 1499, weight: 7107, city: 13),
    (profit: 3217, weight: 3813, city: 13),
    (profit: 7828, weight: 2330, city: 13),
    (profit: 6993, weight: 8288, city: 13),
    (profit: 8116, weight: 7703, city: 13),
    (profit: 4054, weight: 8762, city: 13),
    (profit: 8486, weight: 9873, city: 13),
    (profit: 8930, weight: 6993, city: 13),
    (profit:  270, weight:  287, city: 13),
    (profit: 1219, weight:  626, city: 13),
    (profit: 1886, weight: 7229, city: 13),
    (profit: 4341, weight: 8313, city: 13),
    (profit: 4040, weight: 3726, city: 13),
    (profit: 1649, weight: 7456, city: 13),
    (profit: 7679, weight:  750, city: 13),
    (profit: 7790, weight: 2640, city: 13),
    (profit: 8346, weight: 3143, city: 13),
    (profit: 9058, weight: 9102, city: 13),
    (profit:  934, weight:  402, city: 13),
    (profit: 1402, weight: 9304, city: 14),
    (profit: 6765, weight: 1027, city: 14),
    (profit: 1525, weight: 3241, city: 14),
    (profit: 4297, weight: 4979, city: 14),
    (profit: 4561, weight: 2826, city: 14),
    (profit: 4513, weight: 5783, city: 14),
    (profit:  642, weight: 6801, city: 14),
    (profit: 2271, weight: 7002, city: 14),
    (profit: 8034, weight: 1244, city: 14),
    (profit: 5169, weight: 6745, city: 14),
    (profit: 6331, weight: 6907, city: 14),
    (profit: 2788, weight: 9536, city: 14),
    (profit: 8182, weight: 6578, city: 14),
    (profit: 8247, weight: 7530, city: 14),
    (profit: 3539, weight: 7991, city: 14),
    (profit: 9844, weight: 5722, city: 14),
    (profit: 3961, weight: 4580, city: 14),
    (profit: 5744, weight: 5657, city: 14),
    (profit: 5974, weight: 2639, city: 14),
    (profit:  520, weight: 3561, city: 14),
    (profit: 8319, weight: 5598, city: 15),
    (profit: 4722, weight: 1467, city: 15),
    (profit: 6996, weight:  357, city: 15),
    (profit: 3011, weight: 1050, city: 15),
    (profit: 8936, weight: 9519, city: 15),
    (profit: 7918, weight:  388, city: 15),
    (profit: 6155, weight: 8891, city: 15),
    (profit: 6606, weight: 7382, city: 15),
    (profit: 1617, weight:  426, city: 15),
    (profit: 9222, weight: 1458, city: 15),
    (profit: 6639, weight: 8930, city: 15),
    (profit: 7691, weight: 6044, city: 15),
    (profit: 1247, weight: 2493, city: 15),
    (profit: 7091, weight: 4741, city: 15),
    (profit: 7169, weight:  212, city: 15),
    (profit: 7803, weight: 1398, city: 15),
    (profit: 9459, weight:  512, city: 15),
    (profit:  970, weight: 7698, city: 15),
    (profit: 7203, weight: 7237, city: 15),
    (profit: 3122, weight: 1141, city: 15),
    (profit: 1068, weight: 7329, city: 16),
    (profit: 5954, weight: 4995, city: 16),
    (profit:  854, weight: 9124, city: 16),
    (profit: 7869, weight: 2888, city: 16),
    (profit: 4520, weight: 4853, city: 16),
    (profit: 7071, weight: 4803, city: 16),
    (profit: 7484, weight: 3563, city: 16),
    (profit: 5002, weight: 5940, city: 16),
    (profit: 8165, weight: 7865, city: 16),
    (profit: 5856, weight: 6543, city: 16),
    (profit: 7825, weight: 4818, city: 16),
    (profit: 2427, weight: 8794, city: 16),
    (profit: 5542, weight:  125, city: 16),
    (profit: 4844, weight: 3788, city: 16),
    (profit: 6115, weight: 7700, city: 16),
    (profit: 6142, weight: 5262, city: 16),
    (profit: 4962, weight: 4564, city: 16),
    (profit: 1997, weight: 1386, city: 16),
    (profit: 4017, weight: 8035, city: 16),
    (profit:  703, weight:  860, city: 16),
    (profit: 4143, weight: 8953, city: 17),
    (profit: 3892, weight: 5753, city: 17),
    (profit: 7943, weight: 1685, city: 17),
    (profit: 1806, weight: 3332, city: 17),
    (profit: 7514, weight: 2138, city: 17),
    (profit: 1501, weight: 6340, city: 17),
    (profit: 5043, weight: 7771, city: 17),
    (profit: 8722, weight: 6138, city: 17),
    (profit: 8022, weight: 3095, city: 17),
    (profit: 3761, weight: 5250, city: 17),
    (profit: 9656, weight: 5738, city: 17),
    (profit: 1116, weight: 6789, city: 17),
    (profit: 1125, weight: 6913, city: 17),
    (profit: 3156, weight: 5684, city: 17),
    (profit: 9628, weight: 5503, city: 17),
    (profit: 1767, weight: 3537, city: 17),
    (profit: 1092, weight: 1508, city: 17),
    (profit: 5273, weight: 7417, city: 17),
    (profit: 2725, weight: 3535, city: 17),
    (profit: 4369, weight: 6068, city: 17),
    (profit: 2703, weight: 3822, city: 18),
    (profit: 6936, weight: 8138, city: 18),
    (profit: 6026, weight: 4066, city: 18),
    (profit: 3997, weight: 2658, city: 18),
    (profit: 5381, weight: 2716, city: 18),
    (profit: 2102, weight:  771, city: 18),
    (profit: 8372, weight: 9055, city: 18),
    (profit: 2528, weight: 3358, city: 18),
    (profit: 2631, weight: 9073, city: 18),
    (profit: 8833, weight: 8348, city: 18),
    (profit: 9256, weight: 8232, city: 18),
    (profit: 9091, weight: 2617, city: 18),
    (profit: 4340, weight: 9044, city: 18),
    (profit: 2769, weight: 8605, city: 18),
    (profit: 7456, weight: 4609, city: 18),
    (profit: 2813, weight: 1685, city: 18),
    (profit:  943, weight: 7944, city: 18),
    (profit: 6195, weight: 3871, city: 18),
    (profit: 9918, weight:  710, city: 18),
    (profit: 4491, weight:  233, city: 18),
    (profit: 7472, weight:  115, city: 19),
    (profit: 5775, weight: 1479, city: 19),
    (profit: 3346, weight: 6436, city: 19),
    (profit: 5283, weight: 3338, city: 19),
    (profit:  270, weight: 8802, city: 19),
    (profit: 2555, weight: 1588, city: 19),
    (profit: 5696, weight: 7418, city: 19),
    (profit: 2031, weight: 5812, city: 19),
    (profit: 1025, weight: 7116, city: 19),
    (profit: 8364, weight: 6153, city: 19),
    (profit: 6067, weight: 2764, city: 19),
    (profit: 3214, weight: 9439, city: 19),
    (profit: 9787, weight:  924, city: 19),
    (profit: 3949, weight: 9396, city: 19),
    (profit:  170, weight:  928, city: 19),
    (profit: 9062, weight: 8246, city: 19),
    (profit: 6362, weight: 9383, city: 19),
    (profit: 5929, weight: 8910, city: 19),
    (profit: 9721, weight:  938, city: 19),
    (profit: 6814, weight: 4299, city: 19),
    (profit: 8937, weight: 4786, city: 20),
    (profit: 7246, weight: 1837, city: 20),
    (profit: 7217, weight: 8205, city: 20),
    (profit: 3475, weight: 8667, city: 20),
    (profit: 9122, weight: 8794, city: 20),
    (profit: 5952, weight: 3401, city: 20),
    (profit: 4730, weight:  978, city: 20),
    (profit: 2594, weight: 4812, city: 20),
    (profit: 5889, weight: 5455, city: 20),
    (profit: 4131, weight: 5848, city: 20),
    (profit:  177, weight: 9809, city: 20),
    (profit: 6348, weight: 9889, city: 20),
    (profit: 6615, weight: 8081, city: 20),
    (profit: 9887, weight: 6649, city: 20),
    (profit: 8190, weight: 2274, city: 20),
    (profit: 3415, weight: 4731, city: 20),
    (profit:  608, weight:  798, city: 20),
    (profit: 9883, weight: 3654, city: 20),
    (profit: 1468, weight: 5847, city: 20),
    (profit:  601, weight: 4203, city: 20)
];
